(set-logic QF_LRA)
(declare-fun X0 () Real )
(declare-fun Y0 () Real )
(declare-fun X1 () Real )
(declare-fun Y1 () Real )
(declare-fun X2 () Real )
(declare-fun Y2 () Real )
(declare-fun X3 () Real )
(declare-fun Y3 () Real )
(declare-fun X4 () Real )
(declare-fun Y4 () Real )
(declare-fun X5 () Real )
(declare-fun Y5 () Real )
(declare-fun X6 () Real )
(declare-fun Y6 () Real )
(declare-fun X7 () Real )
(declare-fun Y7 () Real )
(declare-fun X8 () Real )
(declare-fun Y8 () Real )
(declare-fun X9 () Real )
(declare-fun Y9 () Real )
(declare-fun X10 () Real )
(declare-fun Y10 () Real )
(declare-fun X11 () Real )
(declare-fun Y11 () Real )
(declare-fun Z () Real )
(assert ( and  
( or ( <= ( + X0 94 ) X1 )  ( <= ( + X1 63 ) X0 )  ( <= ( + Y0 99 ) Y1 )  ( <= ( + Y1 50 ) Y0 )  )
( or ( <= ( + X0 94 ) X2 )  ( <= ( + X2 93 ) X0 )  ( <= ( + Y0 99 ) Y2 )  ( <= ( + Y2 38 ) Y0 )  )
( or ( <= ( + X0 94 ) X3 )  ( <= ( + X3 97 ) X0 )  ( <= ( + Y0 99 ) Y3 )  ( <= ( + Y3 66 ) Y0 )  )
( or ( <= ( + X0 94 ) X4 )  ( <= ( + X4 71 ) X0 )  ( <= ( + Y0 99 ) Y4 )  ( <= ( + Y4 80 ) Y0 )  )
( or ( <= ( + X0 94 ) X5 )  ( <= ( + X5 90 ) X0 )  ( <= ( + Y0 99 ) Y5 )  ( <= ( + Y5 65 ) Y0 )  )
( or ( <= ( + X0 94 ) X6 )  ( <= ( + X6 96 ) X0 )  ( <= ( + Y0 99 ) Y6 )  ( <= ( + Y6 55 ) Y0 )  )
( or ( <= ( + X0 94 ) X7 )  ( <= ( + X7 33 ) X0 )  ( <= ( + Y0 99 ) Y7 )  ( <= ( + Y7 2 ) Y0 )  )
( or ( <= ( + X0 94 ) X8 )  ( <= ( + X8 22 ) X0 )  ( <= ( + Y0 99 ) Y8 )  ( <= ( + Y8 60 ) Y0 )  )
( or ( <= ( + X0 94 ) X9 )  ( <= ( + X9 92 ) X0 )  ( <= ( + Y0 99 ) Y9 )  ( <= ( + Y9 92 ) Y0 )  )
( or ( <= ( + X0 94 ) X10 )  ( <= ( + X10 38 ) X0 )  ( <= ( + Y0 99 ) Y10 )  ( <= ( + Y10 77 ) Y0 )  )
( or ( <= ( + X0 94 ) X11 )  ( <= ( + X11 22 ) X0 )  ( <= ( + Y0 99 ) Y11 )  ( <= ( + Y11 7 ) Y0 )  )
( or ( <= ( + X1 63 ) X2 )  ( <= ( + X2 93 ) X1 )  ( <= ( + Y1 50 ) Y2 )  ( <= ( + Y2 38 ) Y1 )  )
( or ( <= ( + X1 63 ) X3 )  ( <= ( + X3 97 ) X1 )  ( <= ( + Y1 50 ) Y3 )  ( <= ( + Y3 66 ) Y1 )  )
( or ( <= ( + X1 63 ) X4 )  ( <= ( + X4 71 ) X1 )  ( <= ( + Y1 50 ) Y4 )  ( <= ( + Y4 80 ) Y1 )  )
( or ( <= ( + X1 63 ) X5 )  ( <= ( + X5 90 ) X1 )  ( <= ( + Y1 50 ) Y5 )  ( <= ( + Y5 65 ) Y1 )  )
( or ( <= ( + X1 63 ) X6 )  ( <= ( + X6 96 ) X1 )  ( <= ( + Y1 50 ) Y6 )  ( <= ( + Y6 55 ) Y1 )  )
( or ( <= ( + X1 63 ) X7 )  ( <= ( + X7 33 ) X1 )  ( <= ( + Y1 50 ) Y7 )  ( <= ( + Y7 2 ) Y1 )  )
( or ( <= ( + X1 63 ) X8 )  ( <= ( + X8 22 ) X1 )  ( <= ( + Y1 50 ) Y8 )  ( <= ( + Y8 60 ) Y1 )  )
( or ( <= ( + X1 63 ) X9 )  ( <= ( + X9 92 ) X1 )  ( <= ( + Y1 50 ) Y9 )  ( <= ( + Y9 92 ) Y1 )  )
( or ( <= ( + X1 63 ) X10 )  ( <= ( + X10 38 ) X1 )  ( <= ( + Y1 50 ) Y10 )  ( <= ( + Y10 77 ) Y1 )  )
( or ( <= ( + X1 63 ) X11 )  ( <= ( + X11 22 ) X1 )  ( <= ( + Y1 50 ) Y11 )  ( <= ( + Y11 7 ) Y1 )  )
( or ( <= ( + X2 93 ) X3 )  ( <= ( + X3 97 ) X2 )  ( <= ( + Y2 38 ) Y3 )  ( <= ( + Y3 66 ) Y2 )  )
( or ( <= ( + X2 93 ) X4 )  ( <= ( + X4 71 ) X2 )  ( <= ( + Y2 38 ) Y4 )  ( <= ( + Y4 80 ) Y2 )  )
( or ( <= ( + X2 93 ) X5 )  ( <= ( + X5 90 ) X2 )  ( <= ( + Y2 38 ) Y5 )  ( <= ( + Y5 65 ) Y2 )  )
( or ( <= ( + X2 93 ) X6 )  ( <= ( + X6 96 ) X2 )  ( <= ( + Y2 38 ) Y6 )  ( <= ( + Y6 55 ) Y2 )  )
( or ( <= ( + X2 93 ) X7 )  ( <= ( + X7 33 ) X2 )  ( <= ( + Y2 38 ) Y7 )  ( <= ( + Y7 2 ) Y2 )  )
( or ( <= ( + X2 93 ) X8 )  ( <= ( + X8 22 ) X2 )  ( <= ( + Y2 38 ) Y8 )  ( <= ( + Y8 60 ) Y2 )  )
( or ( <= ( + X2 93 ) X9 )  ( <= ( + X9 92 ) X2 )  ( <= ( + Y2 38 ) Y9 )  ( <= ( + Y9 92 ) Y2 )  )
( or ( <= ( + X2 93 ) X10 )  ( <= ( + X10 38 ) X2 )  ( <= ( + Y2 38 ) Y10 )  ( <= ( + Y10 77 ) Y2 )  )
( or ( <= ( + X2 93 ) X11 )  ( <= ( + X11 22 ) X2 )  ( <= ( + Y2 38 ) Y11 )  ( <= ( + Y11 7 ) Y2 )  )
( or ( <= ( + X3 97 ) X4 )  ( <= ( + X4 71 ) X3 )  ( <= ( + Y3 66 ) Y4 )  ( <= ( + Y4 80 ) Y3 )  )
( or ( <= ( + X3 97 ) X5 )  ( <= ( + X5 90 ) X3 )  ( <= ( + Y3 66 ) Y5 )  ( <= ( + Y5 65 ) Y3 )  )
( or ( <= ( + X3 97 ) X6 )  ( <= ( + X6 96 ) X3 )  ( <= ( + Y3 66 ) Y6 )  ( <= ( + Y6 55 ) Y3 )  )
( or ( <= ( + X3 97 ) X7 )  ( <= ( + X7 33 ) X3 )  ( <= ( + Y3 66 ) Y7 )  ( <= ( + Y7 2 ) Y3 )  )
( or ( <= ( + X3 97 ) X8 )  ( <= ( + X8 22 ) X3 )  ( <= ( + Y3 66 ) Y8 )  ( <= ( + Y8 60 ) Y3 )  )
( or ( <= ( + X3 97 ) X9 )  ( <= ( + X9 92 ) X3 )  ( <= ( + Y3 66 ) Y9 )  ( <= ( + Y9 92 ) Y3 )  )
( or ( <= ( + X3 97 ) X10 )  ( <= ( + X10 38 ) X3 )  ( <= ( + Y3 66 ) Y10 )  ( <= ( + Y10 77 ) Y3 )  )
( or ( <= ( + X3 97 ) X11 )  ( <= ( + X11 22 ) X3 )  ( <= ( + Y3 66 ) Y11 )  ( <= ( + Y11 7 ) Y3 )  )
( or ( <= ( + X4 71 ) X5 )  ( <= ( + X5 90 ) X4 )  ( <= ( + Y4 80 ) Y5 )  ( <= ( + Y5 65 ) Y4 )  )
( or ( <= ( + X4 71 ) X6 )  ( <= ( + X6 96 ) X4 )  ( <= ( + Y4 80 ) Y6 )  ( <= ( + Y6 55 ) Y4 )  )
( or ( <= ( + X4 71 ) X7 )  ( <= ( + X7 33 ) X4 )  ( <= ( + Y4 80 ) Y7 )  ( <= ( + Y7 2 ) Y4 )  )
( or ( <= ( + X4 71 ) X8 )  ( <= ( + X8 22 ) X4 )  ( <= ( + Y4 80 ) Y8 )  ( <= ( + Y8 60 ) Y4 )  )
( or ( <= ( + X4 71 ) X9 )  ( <= ( + X9 92 ) X4 )  ( <= ( + Y4 80 ) Y9 )  ( <= ( + Y9 92 ) Y4 )  )
( or ( <= ( + X4 71 ) X10 )  ( <= ( + X10 38 ) X4 )  ( <= ( + Y4 80 ) Y10 )  ( <= ( + Y10 77 ) Y4 )  )
( or ( <= ( + X4 71 ) X11 )  ( <= ( + X11 22 ) X4 )  ( <= ( + Y4 80 ) Y11 )  ( <= ( + Y11 7 ) Y4 )  )
( or ( <= ( + X5 90 ) X6 )  ( <= ( + X6 96 ) X5 )  ( <= ( + Y5 65 ) Y6 )  ( <= ( + Y6 55 ) Y5 )  )
( or ( <= ( + X5 90 ) X7 )  ( <= ( + X7 33 ) X5 )  ( <= ( + Y5 65 ) Y7 )  ( <= ( + Y7 2 ) Y5 )  )
( or ( <= ( + X5 90 ) X8 )  ( <= ( + X8 22 ) X5 )  ( <= ( + Y5 65 ) Y8 )  ( <= ( + Y8 60 ) Y5 )  )
( or ( <= ( + X5 90 ) X9 )  ( <= ( + X9 92 ) X5 )  ( <= ( + Y5 65 ) Y9 )  ( <= ( + Y9 92 ) Y5 )  )
( or ( <= ( + X5 90 ) X10 )  ( <= ( + X10 38 ) X5 )  ( <= ( + Y5 65 ) Y10 )  ( <= ( + Y10 77 ) Y5 )  )
( or ( <= ( + X5 90 ) X11 )  ( <= ( + X11 22 ) X5 )  ( <= ( + Y5 65 ) Y11 )  ( <= ( + Y11 7 ) Y5 )  )
( or ( <= ( + X6 96 ) X7 )  ( <= ( + X7 33 ) X6 )  ( <= ( + Y6 55 ) Y7 )  ( <= ( + Y7 2 ) Y6 )  )
( or ( <= ( + X6 96 ) X8 )  ( <= ( + X8 22 ) X6 )  ( <= ( + Y6 55 ) Y8 )  ( <= ( + Y8 60 ) Y6 )  )
( or ( <= ( + X6 96 ) X9 )  ( <= ( + X9 92 ) X6 )  ( <= ( + Y6 55 ) Y9 )  ( <= ( + Y9 92 ) Y6 )  )
( or ( <= ( + X6 96 ) X10 )  ( <= ( + X10 38 ) X6 )  ( <= ( + Y6 55 ) Y10 )  ( <= ( + Y10 77 ) Y6 )  )
( or ( <= ( + X6 96 ) X11 )  ( <= ( + X11 22 ) X6 )  ( <= ( + Y6 55 ) Y11 )  ( <= ( + Y11 7 ) Y6 )  )
( or ( <= ( + X7 33 ) X8 )  ( <= ( + X8 22 ) X7 )  ( <= ( + Y7 2 ) Y8 )  ( <= ( + Y8 60 ) Y7 )  )
( or ( <= ( + X7 33 ) X9 )  ( <= ( + X9 92 ) X7 )  ( <= ( + Y7 2 ) Y9 )  ( <= ( + Y9 92 ) Y7 )  )
( or ( <= ( + X7 33 ) X10 )  ( <= ( + X10 38 ) X7 )  ( <= ( + Y7 2 ) Y10 )  ( <= ( + Y10 77 ) Y7 )  )
( or ( <= ( + X7 33 ) X11 )  ( <= ( + X11 22 ) X7 )  ( <= ( + Y7 2 ) Y11 )  ( <= ( + Y11 7 ) Y7 )  )
( or ( <= ( + X8 22 ) X9 )  ( <= ( + X9 92 ) X8 )  ( <= ( + Y8 60 ) Y9 )  ( <= ( + Y9 92 ) Y8 )  )
( or ( <= ( + X8 22 ) X10 )  ( <= ( + X10 38 ) X8 )  ( <= ( + Y8 60 ) Y10 )  ( <= ( + Y10 77 ) Y8 )  )
( or ( <= ( + X8 22 ) X11 )  ( <= ( + X11 22 ) X8 )  ( <= ( + Y8 60 ) Y11 )  ( <= ( + Y11 7 ) Y8 )  )
( or ( <= ( + X9 92 ) X10 )  ( <= ( + X10 38 ) X9 )  ( <= ( + Y9 92 ) Y10 )  ( <= ( + Y10 77 ) Y9 )  )
( or ( <= ( + X9 92 ) X11 )  ( <= ( + X11 22 ) X9 )  ( <= ( + Y9 92 ) Y11 )  ( <= ( + Y11 7 ) Y9 )  )
( or ( <= ( + X10 38 ) X11 )  ( <= ( + X11 22 ) X10 )  ( <= ( + Y10 77 ) Y11 )  ( <= ( + Y11 7 ) Y10 )  )
( >= X0 0)
( <= ( + X0 94) Z)
( >= Y0 0)
( <= ( + Y0 99 ) 100)
( >= X1 0)
( <= ( + X1 63) Z)
( >= Y1 0)
( <= ( + Y1 50 ) 100)
( >= X2 0)
( <= ( + X2 93) Z)
( >= Y2 0)
( <= ( + Y2 38 ) 100)
( >= X3 0)
( <= ( + X3 97) Z)
( >= Y3 0)
( <= ( + Y3 66 ) 100)
( >= X4 0)
( <= ( + X4 71) Z)
( >= Y4 0)
( <= ( + Y4 80 ) 100)
( >= X5 0)
( <= ( + X5 90) Z)
( >= Y5 0)
( <= ( + Y5 65 ) 100)
( >= X6 0)
( <= ( + X6 96) Z)
( >= Y6 0)
( <= ( + Y6 55 ) 100)
( >= X7 0)
( <= ( + X7 33) Z)
( >= Y7 0)
( <= ( + Y7 2 ) 100)
( >= X8 0)
( <= ( + X8 22) Z)
( >= Y8 0)
( <= ( + Y8 60 ) 100)
( >= X9 0)
( <= ( + X9 92) Z)
( >= Y9 0)
( <= ( + Y9 92 ) 100)
( >= X10 0)
( <= ( + X10 38) Z)
( >= Y10 0)
( <= ( + Y10 77 ) 100)
( >= X11 0)
( <= ( + X11 22) Z)
( >= Y11 0)
( <= ( + Y11 7 ) 100)
) )
(minimize Z)
(check-sat)
